(declare-fun bvlambda_27_ () (_ BitVec 1))
(declare-fun a46 () (Array (_ BitVec 10) (_ BitVec 2)))
(declare-fun a47 () (Array (_ BitVec 12) (_ BitVec 4)))
(declare-fun a48 () (Array (_ BitVec 1) (_ BitVec 13)))
(assert
(let (($e11 (_ bv0 6)))
(let (($e17 (_ bv0 2)))
(let (($e20 (_ bv0 13)))
(let (($e66 (store a48 bvlambda_27_ $e20)))
(let (($e67 (select $e66 false       )))
(let (($e114 (store a48 false $e67)))
(let (($e172 (select $e114        bvlambda_27_)))
(let (($e198 (concat $e17 $e172)))
(let (($e238 (select $e114 true     )))
(let (($e239 ((_ extract 11 0) $e238)))
(let (($e240 (select a47 $e239)))
(let (($e242 (concat        $e11  $e240)))
(let (($e245 (select a46 $e242)))
(let (($e246 (concat $e67 $e245)))
(let (($e247      (=     $e246 $e198)         ))
             (=            $e247         false       )
                                                                )))  ) )))                                       )                         )                                                         )                                              ))                  )  )     )          )
